90 4005
1 2 192
1 3 145
1 4 129
1 5 123
1 6 207
1 7 4
1 8 227
1 9 231
1 10 163
1 11 223
1 12 28
1 13 254
1 14 12
1 15 129
1 16 60
1 17 55
1 18 209
1 19 134
1 20 217
1 21 74
1 22 192
1 23 250
1 24 33
1 25 259
1 26 10
1 27 263
1 28 133
1 29 170
1 30 120
1 31 233
1 32 110
1 33 149
1 34 194
1 35 107
1 36 164
1 37 96
1 38 75
1 39 191
1 40 199
1 41 8
1 42 195
1 43 198
1 44 42
1 45 233
1 46 75
1 47 27
1 48 234
1 49 193
1 50 96
1 51 106
1 52 24
1 53 214
1 54 95
1 55 140
1 56 204
1 57 35
1 58 36
1 59 117
1 60 166
1 61 180
1 62 43
1 63 50
1 64 227
1 65 160
1 66 151
1 67 38
1 68 171
1 69 194
1 70 89
1 71 168
1 72 240
1 73 268
1 74 143
1 75 245
1 76 227
1 77 8
1 78 39
1 79 9
1 80 212
1 81 250
1 82 27
1 83 209
1 84 262
1 85 129
1 86 242
1 87 52
1 88 207
1 89 67
1 90 264
2 3 229
2 4 58
2 5 98
2 6 253
2 7 83
2 8 246
2 9 66
2 10 198
2 11 159
2 12 83
2 13 181
2 14 96
2 15 156
2 16 258
2 17 85
2 18 62
2 19 123
2 20 144
2 21 7
2 22 1
2 23 123
2 24 255
2 25 120
2 26 112
2 27 38
2 28 173
2 29 246
2 30 175
2 31 56
2 32 53
2 33 264
2 34 69
2 35 228
2 36 190
2 37 246
2 38 101
2 39 49
2 40 56
2 41 167
2 42 182
2 43 225
2 44 257
2 45 247
2 46 11
2 47 178
2 48 199
2 49 122
2 50 18
2 51 243
2 52 41
2 53 73
2 54 137
2 55 21
2 56 34
2 57 253
2 58 224
2 59 99
2 60 87
2 61 221
2 62 235
2 63 261
2 64 240
2 65 2
2 66 208
2 67 93
2 68 75
2 69 208
2 70 129
2 71 86
2 72 62
2 73 258
2 74 20
2 75 174
2 76 225
2 77 199
2 78 102
2 79 224
2 80 230
2 81 168
2 82 73
2 83 265
2 84 208
2 85 176
2 86 231
2 87 92
2 88 253
2 89 240
2 90 28
3 4 45
3 5 11
3 6 63
3 7 12
3 8 41
3 9 113
3 10 141
3 11 138
3 12 117
3 13 267
3 14 249
3 15 107
3 16 141
3 17 257
3 18 63
3 19 27
3 20 137
3 21 180
3 22 258
3 23 139
3 24 150
3 25 80
3 26 269
3 27 167
3 28 194
3 29 247
3 30 139
3 31 121
3 32 186
3 33 230
3 34 190
3 35 146
3 36 26
3 37 36
3 38 260
3 39 26
3 40 151
3 41 83
3 42 183
3 43 183
3 44 248
3 45 54
3 46 108
3 47 148
3 48 252
3 49 166
3 50 47
3 51 168
3 52 7
3 53 65
3 54 188
3 55 107
3 56 162
3 57 155
3 58 195
3 59 212
3 60 108
3 61 127
3 62 23
3 63 161
3 64 34
3 65 166
3 66 167
3 67 151
3 68 170
3 69 91
3 70 207
3 71 69
3 72 191
3 73 64
3 74 145
3 75 51
3 76 160
3 77 250
3 78 186
3 79 108
3 80 195
3 81 193
3 82 15
3 83 175
3 84 228
3 85 139
3 86 183
3 87 50
3 88 227
3 89 46
3 90 26
4 5 40
4 6 18
4 7 8
4 8 2
4 9 152
4 10 79
4 11 167
4 12 13
4 13 251
4 14 12
4 15 240
4 16 227
4 17 199
4 18 242
4 19 120
4 20 240
4 21 66
4 22 267
4 23 130
4 24 192
4 25 57
4 26 119
4 27 253
4 28 59
4 29 181
4 30 232
4 31 84
4 32 91
4 33 229
4 34 191
4 35 82
4 36 219
4 37 23
4 38 48
4 39 72
4 40 139
4 41 183
4 42 149
4 43 167
4 44 188
4 45 239
4 46 162
4 47 121
4 48 114
4 49 149
4 50 14
4 51 75
4 52 95
4 53 47
4 54 231
4 55 184
4 56 189
4 57 196
4 58 151
4 59 138
4 60 89
4 61 149
4 62 78
4 63 55
4 64 76
4 65 150
4 66 112
4 67 4
4 68 157
4 69 47
4 70 54
4 71 254
4 72 240
4 73 209
4 74 56
4 75 78
4 76 80
4 77 136
4 78 163
4 79 157
4 80 38
4 81 148
4 82 176
4 83 117
4 84 17
4 85 263
4 86 160
4 87 74
4 88 162
4 89 245
4 90 189
5 6 60
5 7 162
5 8 166
5 9 69
5 10 140
5 11 208
5 12 180
5 13 134
5 14 32
5 15 239
5 16 207
5 17 184
5 18 13
5 19 212
5 20 185
5 21 87
5 22 112
5 23 48
5 24 157
5 25 193
5 26 64
5 27 260
5 28 106
5 29 243
5 30 219
5 31 225
5 32 27
5 33 200
5 34 156
5 35 86
5 36 228
5 37 44
5 38 1
5 39 57
5 40 253
5 41 112
5 42 35
5 43 229
5 44 219
5 45 76
5 46 266
5 47 60
5 48 207
5 49 256
5 50 26
5 51 63
5 52 259
5 53 11
5 54 161
5 55 172
5 56 139
5 57 150
5 58 181
5 59 207
5 60 21
5 61 90
5 62 245
5 63 185
5 64 218
5 65 218
5 66 84
5 67 106
5 68 222
5 69 241
5 70 165
5 71 41
5 72 214
5 73 190
5 74 15
5 75 195
5 76 227
5 77 14
5 78 130
5 79 22
5 80 147
5 81 157
5 82 262
5 83 238
5 84 252
5 85 184
5 86 211
5 87 213
5 88 112
5 89 243
5 90 18
6 7 49
6 8 182
6 9 52
6 10 118
6 11 248
6 12 152
6 13 164
6 14 108
6 15 267
6 16 181
6 17 177
6 18 24
6 19 259
6 20 217
6 21 200
6 22 153
6 23 207
6 24 59
6 25 88
6 26 79
6 27 199
6 28 4
6 29 228
6 30 266
6 31 72
6 32 58
6 33 63
6 34 210
6 35 216
6 36 39
6 37 139
6 38 269
6 39 173
6 40 12
6 41 10
6 42 183
6 43 245
6 44 120
6 45 29
6 46 153
6 47 65
6 48 211
6 49 65
6 50 178
6 51 207
6 52 144
6 53 128
6 54 64
6 55 210
6 56 97
6 57 11
6 58 116
6 59 31
6 60 263
6 61 101
6 62 156
6 63 256
6 64 27
6 65 126
6 66 43
6 67 232
6 68 233
6 69 116
6 70 192
6 71 137
6 72 194
6 73 216
6 74 187
6 75 27
6 76 121
6 77 180
6 78 166
6 79 220
6 80 24
6 81 176
6 82 255
6 83 101
6 84 22
6 85 28
6 86 94
6 87 251
6 88 190
6 89 68
6 90 269
7 8 62
7 9 262
7 10 4
7 11 229
7 12 8
7 13 238
7 14 196
7 15 166
7 16 206
7 17 30
7 18 218
7 19 218
7 20 106
7 21 121
7 22 235
7 23 51
7 24 103
7 25 9
7 26 38
7 27 56
7 28 102
7 29 124
7 30 236
7 31 268
7 32 16
7 33 263
7 34 211
7 35 234
7 36 76
7 37 21
7 38 78
7 39 206
7 40 266
7 41 2
7 42 206
7 43 59
7 44 174
7 45 207
7 46 98
7 47 249
7 48 173
7 49 120
7 50 163
7 51 235
7 52 51
7 53 191
7 54 213
7 55 2
7 56 192
7 57 158
7 58 191
7 59 0
7 60 91
7 61 212
7 62 212
7 63 138
7 64 79
7 65 57
7 66 192
7 67 135
7 68 66
7 69 9
7 70 183
7 71 114
7 72 237
7 73 216
7 74 153
7 75 129
7 76 179
7 77 0
7 78 127
7 79 45
7 80 154
7 81 168
7 82 51
7 83 191
7 84 139
7 85 256
7 86 136
7 87 127
7 88 32
7 89 206
7 90 89
8 9 44
8 10 98
8 11 205
8 12 88
8 13 268
8 14 97
8 15 233
8 16 160
8 17 186
8 18 57
8 19 127
8 20 65
8 21 190
8 22 172
8 23 169
8 24 141
8 25 70
8 26 264
8 27 122
8 28 181
8 29 163
8 30 45
8 31 198
8 32 187
8 33 33
8 34 9
8 35 71
8 36 100
8 37 181
8 38 27
8 39 142
8 40 11
8 41 173
8 42 52
8 43 148
8 44 133
8 45 29
8 46 184
8 47 138
8 48 260
8 49 187
8 50 99
8 51 247
8 52 127
8 53 99
8 54 262
8 55 151
8 56 39
8 57 213
8 58 96
8 59 78
8 60 95
8 61 150
8 62 193
8 63 186
8 64 144
8 65 241
8 66 128
8 67 100
8 68 85
8 69 233
8 70 193
8 71 9
8 72 60
8 73 4
8 74 65
8 75 107
8 76 154
8 77 125
8 78 42
8 79 200
8 80 138
8 81 265
8 82 205
8 83 7
8 84 261
8 85 190
8 86 102
8 87 250
8 88 76
8 89 218
8 90 69
9 10 142
9 11 26
9 12 84
9 13 188
9 14 118
9 15 153
9 16 52
9 17 174
9 18 151
9 19 195
9 20 147
9 21 145
9 22 10
9 23 136
9 24 82
9 25 239
9 26 220
9 27 161
9 28 118
9 29 265
9 30 191
9 31 172
9 32 178
9 33 57
9 34 185
9 35 257
9 36 8
9 37 151
9 38 106
9 39 113
9 40 32
9 41 206
9 42 200
9 43 238
9 44 187
9 45 93
9 46 24
9 47 263
9 48 119
9 49 235
9 50 116
9 51 262
9 52 59
9 53 101
9 54 26
9 55 84
9 56 104
9 57 148
9 58 234
9 59 75
9 60 84
9 61 127
9 62 67
9 63 20
9 64 100
9 65 131
9 66 210
9 67 180
9 68 39
9 69 211
9 70 219
9 71 141
9 72 139
9 73 226
9 74 67
9 75 212
9 76 135
9 77 70
9 78 196
9 79 248
9 80 38
9 81 114
9 82 157
9 83 93
9 84 192
9 85 213
9 86 111
9 87 250
9 88 88
9 89 112
9 90 33
10 11 206
10 12 234
10 13 103
10 14 166
10 15 193
10 16 148
10 17 173
10 18 263
10 19 78
10 20 211
10 21 99
10 22 214
10 23 81
10 24 7
10 25 78
10 26 59
10 27 142
10 28 167
10 29 230
10 30 165
10 31 206
10 32 23
10 33 38
10 34 141
10 35 239
10 36 230
10 37 0
10 38 6
10 39 119
10 40 119
10 41 34
10 42 52
10 43 100
10 44 112
10 45 85
10 46 152
10 47 46
10 48 147
10 49 2
10 50 257
10 51 10
10 52 53
10 53 148
10 54 121
10 55 181
10 56 28
10 57 232
10 58 122
10 59 93
10 60 206
10 61 100
10 62 254
10 63 260
10 64 193
10 65 234
10 66 192
10 67 208
10 68 101
10 69 129
10 70 18
10 71 49
10 72 76
10 73 201
10 74 56
10 75 241
10 76 110
10 77 246
10 78 129
10 79 153
10 80 209
10 81 226
10 82 85
10 83 142
10 84 101
10 85 70
10 86 132
10 87 145
10 88 189
10 89 113
10 90 181
11 12 225
11 13 91
11 14 263
11 15 151
11 16 92
11 17 257
11 18 147
11 19 55
11 20 45
11 21 65
11 22 83
11 23 184
11 24 249
11 25 53
11 26 88
11 27 20
11 28 239
11 29 255
11 30 102
11 31 36
11 32 179
11 33 146
11 34 36
11 35 14
11 36 191
11 37 187
11 38 261
11 39 124
11 40 261
11 41 1
11 42 33
11 43 198
11 44 190
11 45 6
11 46 44
11 47 77
11 48 246
11 49 6
11 50 47
11 51 30
11 52 207
11 53 42
11 54 174
11 55 72
11 56 195
11 57 5
11 58 43
11 59 262
11 60 92
11 61 177
11 62 34
11 63 49
11 64 218
11 65 191
11 66 20
11 67 214
11 68 157
11 69 160
11 70 169
11 71 93
11 72 83
11 73 238
11 74 230
11 75 29
11 76 178
11 77 80
11 78 65
11 79 172
11 80 7
11 81 219
11 82 18
11 83 154
11 84 62
11 85 217
11 86 72
11 87 232
11 88 100
11 89 29
11 90 49
12 13 134
12 14 100
12 15 26
12 16 70
12 17 202
12 18 93
12 19 110
12 20 266
12 21 6
12 22 41
12 23 66
12 24 147
12 25 249
12 26 23
12 27 82
12 28 173
12 29 175
12 30 109
12 31 225
12 32 165
12 33 261
12 34 134
12 35 146
12 36 109
12 37 245
12 38 48
12 39 267
12 40 99
12 41 215
12 42 154
12 43 169
12 44 260
12 45 64
12 46 165
12 47 125
12 48 99
12 49 195
12 50 8
12 51 121
12 52 73
12 53 63
12 54 193
12 55 147
12 56 257
12 57 161
12 58 21
12 59 16
12 60 119
12 61 53
12 62 64
12 63 243
12 64 247
12 65 170
12 66 172
12 67 79
12 68 175
12 69 250
12 70 190
12 71 127
12 72 40
12 73 111
12 74 177
12 75 236
12 76 191
12 77 265
12 78 32
12 79 203
12 80 253
12 81 80
12 82 163
12 83 211
12 84 158
12 85 126
12 86 72
12 87 130
12 88 50
12 89 252
12 90 248
13 14 21
13 15 244
13 16 79
13 17 7
13 18 115
13 19 244
13 20 261
13 21 251
13 22 206
13 23 233
13 24 204
13 25 172
13 26 217
13 27 200
13 28 171
13 29 138
13 30 269
13 31 50
13 32 22
13 33 12
13 34 103
13 35 181
13 36 128
13 37 150
13 38 250
13 39 256
13 40 94
13 41 140
13 42 174
13 43 181
13 44 95
13 45 184
13 46 14
13 47 75
13 48 230
13 49 29
13 50 114
13 51 115
13 52 263
13 53 178
13 54 61
13 55 91
13 56 137
13 57 218
13 58 234
13 59 238
13 60 43
13 61 181
13 62 88
13 63 215
13 64 73
13 65 62
13 66 5
13 67 226
13 68 124
13 69 201
13 70 49
13 71 227
13 72 137
13 73 202
13 74 237
13 75 4
13 76 181
13 77 136
13 78 171
13 79 32
13 80 195
13 81 65
13 82 182
13 83 245
13 84 221
13 85 97
13 86 68
13 87 100
13 88 249
13 89 127
13 90 145
14 15 105
14 16 169
14 17 12
14 18 230
14 19 112
14 20 91
14 21 140
14 22 70
14 23 144
14 24 213
14 25 146
14 26 3
14 27 113
14 28 238
14 29 11
14 30 213
14 31 258
14 32 23
14 33 130
14 34 142
14 35 29
14 36 248
14 37 90
14 38 110
14 39 131
14 40 190
14 41 145
14 42 13
14 43 260
14 44 10
14 45 177
14 46 65
14 47 170
14 48 258
14 49 128
14 50 225
14 51 226
14 52 258
14 53 6
14 54 119
14 55 254
14 56 7
14 57 66
14 58 151
14 59 252
14 60 110
14 61 79
14 62 202
14 63 241
14 64 130
14 65 197
14 66 15
14 67 193
14 68 266
14 69 11
14 70 76
14 71 174
14 72 46
14 73 152
14 74 93
14 75 166
14 76 255
14 77 82
14 78 50
14 79 32
14 80 49
14 81 224
14 82 158
14 83 124
14 84 268
14 85 6
14 86 171
14 87 139
14 88 135
14 89 59
14 90 38
15 16 178
15 17 229
15 18 17
15 19 132
15 20 211
15 21 61
15 22 87
15 23 83
15 24 59
15 25 138
15 26 142
15 27 32
15 28 179
15 29 79
15 30 102
15 31 32
15 32 247
15 33 194
15 34 195
15 35 26
15 36 206
15 37 122
15 38 243
15 39 182
15 40 268
15 41 130
15 42 164
15 43 218
15 44 18
15 45 173
15 46 164
15 47 124
15 48 13
15 49 54
15 50 80
15 51 184
15 52 214
15 53 148
15 54 129
15 55 2
15 56 253
15 57 170
15 58 258
15 59 2
15 60 34
15 61 197
15 62 68
15 63 209
15 64 64
15 65 217
15 66 207
15 67 84
15 68 60
15 69 263
15 70 205
15 71 37
15 72 107
15 73 153
15 74 29
15 75 194
15 76 57
15 77 251
15 78 139
15 79 178
15 80 120
15 81 102
15 82 119
15 83 2
15 84 50
15 85 108
15 86 208
15 87 108
15 88 208
15 89 85
15 90 206
16 17 79
16 18 251
16 19 34
16 20 223
16 21 47
16 22 136
16 23 225
16 24 182
16 25 242
16 26 106
16 27 35
16 28 208
16 29 22
16 30 83
16 31 32
16 32 195
16 33 50
16 34 174
16 35 197
16 36 221
16 37 17
16 38 168
16 39 28
16 40 140
16 41 225
16 42 206
16 43 8
16 44 146
16 45 251
16 46 117
16 47 127
16 48 144
16 49 34
16 50 107
16 51 83
16 52 250
16 53 47
16 54 227
16 55 204
16 56 194
16 57 0
16 58 197
16 59 128
16 60 142
16 61 0
16 62 44
16 63 144
16 64 243
16 65 75
16 66 57
16 67 73
16 68 20
16 69 55
16 70 155
16 71 226
16 72 204
16 73 174
16 74 206
16 75 132
16 76 92
16 77 84
16 78 44
16 79 262
16 80 254
16 81 221
16 82 253
16 83 20
16 84 265
16 85 143
16 86 146
16 87 210
16 88 150
16 89 36
16 90 28
17 18 159
17 19 59
17 20 177
17 21 243
17 22 268
17 23 255
17 24 245
17 25 41
17 26 206
17 27 253
17 28 55
17 29 21
17 30 147
17 31 75
17 32 234
17 33 86
17 34 165
17 35 230
17 36 22
17 37 31
17 38 85
17 39 198
17 40 190
17 41 166
17 42 200
17 43 159
17 44 60
17 45 37
17 46 81
17 47 215
17 48 88
17 49 105
17 50 58
17 51 196
17 52 206
17 53 257
17 54 132
17 55 66
17 56 247
17 57 259
17 58 232
17 59 40
17 60 120
17 61 264
17 62 129
17 63 150
17 64 47
17 65 71
17 66 104
17 67 112
17 68 2
17 69 263
17 70 177
17 71 174
17 72 228
17 73 139
17 74 194
17 75 254
17 76 127
17 77 186
17 78 97
17 79 165
17 80 211
17 81 212
17 82 180
17 83 24
17 84 162
17 85 219
17 86 265
17 87 238
17 88 3
17 89 125
17 90 37
18 19 40
18 20 243
18 21 120
18 22 223
18 23 223
18 24 142
18 25 139
18 26 20
18 27 45
18 28 128
18 29 253
18 30 17
18 31 88
18 32 83
18 33 108
18 34 34
18 35 147
18 36 235
18 37 24
18 38 131
18 39 244
18 40 184
18 41 196
18 42 220
18 43 74
18 44 232
18 45 256
18 46 131
18 47 54
18 48 263
18 49 259
18 50 64
18 51 204
18 52 161
18 53 18
18 54 26
18 55 1
18 56 123
18 57 51
18 58 261
18 59 7
18 60 166
18 61 138
18 62 67
18 63 206
18 64 61
18 65 130
18 66 248
18 67 41
18 68 193
18 69 192
18 70 199
18 71 102
18 72 218
18 73 74
18 74 138
18 75 223
18 76 37
18 77 241
18 78 43
18 79 33
18 80 239
18 81 228
18 82 35
18 83 138
18 84 21
18 85 53
18 86 219
18 87 245
18 88 207
18 89 110
18 90 247
19 20 211
19 21 263
19 22 0
19 23 164
19 24 154
19 25 201
19 26 203
19 27 0
19 28 185
19 29 211
19 30 177
19 31 244
19 32 120
19 33 101
19 34 70
19 35 220
19 36 143
19 37 143
19 38 261
19 39 268
19 40 190
19 41 96
19 42 253
19 43 60
19 44 17
19 45 42
19 46 171
19 47 80
19 48 41
19 49 107
19 50 145
19 51 239
19 52 79
19 53 178
19 54 120
19 55 103
19 56 139
19 57 102
19 58 145
19 59 31
19 60 223
19 61 246
19 62 62
19 63 223
19 64 16
19 65 11
19 66 185
19 67 229
19 68 2
19 69 153
19 70 6
19 71 251
19 72 190
19 73 259
19 74 168
19 75 199
19 76 155
19 77 53
19 78 254
19 79 17
19 80 11
19 81 247
19 82 68
19 83 90
19 84 214
19 85 224
19 86 123
19 87 78
19 88 33
19 89 190
19 90 57
20 21 166
20 22 233
20 23 68
20 24 88
20 25 217
20 26 65
20 27 66
20 28 101
20 29 46
20 30 41
20 31 202
20 32 187
20 33 50
20 34 49
20 35 108
20 36 234
20 37 155
20 38 194
20 39 128
20 40 182
20 41 212
20 42 169
20 43 37
20 44 196
20 45 263
20 46 123
20 47 62
20 48 33
20 49 257
20 50 221
20 51 172
20 52 231
20 53 242
20 54 243
20 55 128
20 56 125
20 57 189
20 58 52
20 59 176
20 60 234
20 61 204
20 62 251
20 63 227
20 64 61
20 65 24
20 66 244
20 67 245
20 68 217
20 69 44
20 70 106
20 71 76
20 72 67
20 73 42
20 74 225
20 75 10
20 76 236
20 77 73
20 78 192
20 79 29
20 80 202
20 81 208
20 82 67
20 83 25
20 84 151
20 85 248
20 86 94
20 87 55
20 88 140
20 89 127
20 90 258
21 22 180
21 23 44
21 24 110
21 25 37
21 26 239
21 27 91
21 28 205
21 29 165
21 30 222
21 31 185
21 32 122
21 33 216
21 34 243
21 35 205
21 36 249
21 37 114
21 38 240
21 39 200
21 40 165
21 41 221
21 42 235
21 43 214
21 44 88
21 45 75
21 46 53
21 47 119
21 48 118
21 49 234
21 50 87
21 51 139
21 52 223
21 53 2
21 54 253
21 55 211
21 56 166
21 57 51
21 58 177
21 59 207
21 60 20
21 61 229
21 62 109
21 63 183
21 64 263
21 65 197
21 66 147
21 67 182
21 68 111
21 69 26
21 70 132
21 71 50
21 72 38
21 73 257
21 74 127
21 75 137
21 76 171
21 77 210
21 78 189
21 79 75
21 80 51
21 81 113
21 82 200
21 83 174
21 84 12
21 85 86
21 86 252
21 87 36
21 88 166
21 89 189
21 90 219
22 23 160
22 24 239
22 25 115
22 26 118
22 27 252
22 28 35
22 29 41
22 30 169
22 31 102
22 32 161
22 33 50
22 34 224
22 35 166
22 36 158
22 37 163
22 38 34
22 39 268
22 40 68
22 41 45
22 42 51
22 43 49
22 44 82
22 45 192
22 46 24
22 47 216
22 48 135
22 49 261
22 50 212
22 51 68
22 52 46
22 53 24
22 54 188
22 55 262
22 56 148
22 57 97
22 58 163
22 59 243
22 60 102
22 61 98
22 62 71
22 63 133
22 64 172
22 65 220
22 66 189
22 67 230
22 68 86
22 69 111
22 70 236
22 71 254
22 72 133
22 73 151
22 74 64
22 75 155
22 76 71
22 77 184
22 78 127
22 79 239
22 80 65
22 81 107
22 82 183
22 83 257
22 84 132
22 85 223
22 86 101
22 87 269
22 88 238
22 89 249
22 90 236
23 24 254
23 25 135
23 26 168
23 27 227
23 28 36
23 29 5
23 30 245
23 31 146
23 32 4
23 33 151
23 34 127
23 35 246
23 36 198
23 37 1
23 38 22
23 39 48
23 40 138
23 41 58
23 42 41
23 43 29
23 44 57
23 45 202
23 46 239
23 47 86
23 48 188
23 49 3
23 50 181
23 51 142
23 52 125
23 53 122
23 54 267
23 55 163
23 56 7
23 57 6
23 58 227
23 59 21
23 60 133
23 61 82
23 62 51
23 63 236
23 64 42
23 65 220
23 66 151
23 67 131
23 68 104
23 69 107
23 70 125
23 71 46
23 72 243
23 73 71
23 74 137
23 75 185
23 76 96
23 77 240
23 78 17
23 79 48
23 80 18
23 81 156
23 82 173
23 83 162
23 84 207
23 85 72
23 86 181
23 87 226
23 88 10
23 89 130
23 90 252
24 25 36
24 26 102
24 27 193
24 28 103
24 29 19
24 30 2
24 31 105
24 32 241
24 33 141
24 34 27
24 35 134
24 36 91
24 37 5
24 38 177
24 39 203
24 40 8
24 41 62
24 42 237
24 43 232
24 44 73
24 45 140
24 46 121
24 47 153
24 48 205
24 49 157
24 50 201
24 51 156
24 52 47
24 53 150
24 54 105
24 55 122
24 56 243
24 57 217
24 58 198
24 59 75
24 60 84
24 61 123
24 62 184
24 63 269
24 64 162
24 65 240
24 66 222
24 67 16
24 68 125
24 69 217
24 70 194
24 71 134
24 72 11
24 73 162
24 74 108
24 75 128
24 76 7
24 77 184
24 78 83
24 79 55
24 80 46
24 81 46
24 82 265
24 83 90
24 84 23
24 85 55
24 86 37
24 87 11
24 88 185
24 89 18
24 90 160
25 26 229
25 27 54
25 28 195
25 29 81
25 30 260
25 31 257
25 32 160
25 33 174
25 34 128
25 35 192
25 36 236
25 37 127
25 38 150
25 39 40
25 40 93
25 41 48
25 42 31
25 43 219
25 44 13
25 45 159
25 46 207
25 47 249
25 48 70
25 49 223
25 50 158
25 51 159
25 52 199
25 53 147
25 54 216
25 55 255
25 56 261
25 57 154
25 58 40
25 59 14
25 60 45
25 61 89
25 62 185
25 63 120
25 64 94
25 65 57
25 66 219
25 67 82
25 68 65
25 69 115
25 70 242
25 71 28
25 72 150
25 73 170
25 74 61
25 75 16
25 76 12
25 77 175
25 78 147
25 79 91
25 80 114
25 81 212
25 82 216
25 83 176
25 84 129
25 85 98
25 86 83
25 87 18
25 88 132
25 89 85
25 90 12
26 27 259
26 28 244
26 29 73
26 30 15
26 31 114
26 32 88
26 33 80
26 34 228
26 35 49
26 36 65
26 37 220
26 38 175
26 39 234
26 40 139
26 41 151
26 42 178
26 43 260
26 44 75
26 45 58
26 46 196
26 47 92
26 48 161
26 49 60
26 50 122
26 51 136
26 52 23
26 53 262
26 54 215
26 55 232
26 56 97
26 57 102
26 58 199
26 59 159
26 60 185
26 61 179
26 62 95
26 63 21
26 64 218
26 65 21
26 66 190
26 67 63
26 68 197
26 69 221
26 70 160
26 71 208
26 72 254
26 73 253
26 74 104
26 75 104
26 76 126
26 77 189
26 78 34
26 79 194
26 80 130
26 81 231
26 82 192
26 83 226
26 84 11
26 85 66
26 86 186
26 87 264
26 88 26
26 89 117
26 90 261
27 28 1
27 29 182
27 30 145
27 31 170
27 32 121
27 33 257
27 34 120
27 35 206
27 36 163
27 37 193
27 38 41
27 39 139
27 40 2
27 41 89
27 42 67
27 43 98
27 44 202
27 45 242
27 46 170
27 47 153
27 48 92
27 49 38
27 50 52
27 51 217
27 52 50
27 53 197
27 54 96
27 55 147
27 56 181
27 57 260
27 58 91
27 59 205
27 60 46
27 61 44
27 62 218
27 63 235
27 64 238
27 65 152
27 66 103
27 67 161
27 68 60
27 69 244
27 70 158
27 71 14
27 72 102
27 73 181
27 74 52
27 75 219
27 76 3
27 77 204
27 78 37
27 79 34
27 80 162
27 81 191
27 82 189
27 83 226
27 84 66
27 85 205
27 86 124
27 87 115
27 88 69
27 89 111
27 90 178
28 29 44
28 30 269
28 31 50
28 32 201
28 33 212
28 34 168
28 35 189
28 36 248
28 37 208
28 38 193
28 39 147
28 40 183
28 41 220
28 42 146
28 43 89
28 44 49
28 45 64
28 46 129
28 47 153
28 48 15
28 49 99
28 50 98
28 51 152
28 52 161
28 53 211
28 54 1
28 55 192
28 56 255
28 57 19
28 58 167
28 59 124
28 60 13
28 61 34
28 62 29
28 63 144
28 64 23
28 65 119
28 66 6
28 67 205
28 68 145
28 69 203
28 70 162
28 71 16
28 72 154
28 73 177
28 74 177
28 75 48
28 76 216
28 77 11
28 78 146
28 79 168
28 80 196
28 81 61
28 82 56
28 83 240
28 84 197
28 85 176
28 86 122
28 87 245
28 88 67
28 89 51
28 90 236
29 30 34
29 31 17
29 32 207
29 33 261
29 34 90
29 35 111
29 36 143
29 37 22
29 38 214
29 39 188
29 40 201
29 41 88
29 42 51
29 43 118
29 44 96
29 45 40
29 46 186
29 47 208
29 48 6
29 49 58
29 50 211
29 51 187
29 52 109
29 53 184
29 54 146
29 55 54
29 56 71
29 57 74
29 58 75
29 59 208
29 60 23
29 61 200
29 62 113
29 63 215
29 64 179
29 65 161
29 66 249
29 67 11
29 68 112
29 69 264
29 70 80
29 71 135
29 72 247
29 73 154
29 74 187
29 75 179
29 76 117
29 77 139
29 78 219
29 79 135
29 80 117
29 81 249
29 82 155
29 83 167
29 84 45
29 85 61
29 86 178
29 87 150
29 88 62
29 89 166
29 90 132
30 31 201
30 32 186
30 33 33
30 34 198
30 35 149
30 36 146
30 37 142
30 38 21
30 39 225
30 40 58
30 41 191
30 42 70
30 43 107
30 44 85
30 45 168
30 46 151
30 47 237
30 48 121
30 49 239
30 50 155
30 51 77
30 52 160
30 53 217
30 54 65
30 55 108
30 56 219
30 57 87
30 58 191
30 59 87
30 60 109
30 61 55
30 62 109
30 63 203
30 64 45
30 65 190
30 66 54
30 67 159
30 68 208
30 69 10
30 70 246
30 71 171
30 72 34
30 73 241
30 74 202
30 75 161
30 76 8
30 77 93
30 78 17
30 79 166
30 80 261
30 81 234
30 82 208
30 83 95
30 84 33
30 85 249
30 86 201
30 87 137
30 88 143
30 89 124
30 90 195
31 32 103
31 33 147
31 34 232
31 35 94
31 36 210
31 37 58
31 38 225
31 39 195
31 40 196
31 41 98
31 42 80
31 43 257
31 44 230
31 45 108
31 46 28
31 47 79
31 48 224
31 49 126
31 50 225
31 51 264
31 52 14
31 53 46
31 54 45
31 55 38
31 56 42
31 57 67
31 58 162
31 59 38
31 60 251
31 61 73
31 62 72
31 63 93
31 64 109
31 65 249
31 66 240
31 67 245
31 68 266
31 69 192
31 70 68
31 71 264
31 72 14
31 73 132
31 74 203
31 75 90
31 76 166
31 77 88
31 78 39
31 79 84
31 80 175
31 81 229
31 82 37
31 83 188
31 84 201
31 85 201
31 86 260
31 87 94
31 88 62
31 89 220
31 90 123
32 33 239
32 34 111
32 35 249
32 36 109
32 37 201
32 38 228
32 39 144
32 40 243
32 41 99
32 42 259
32 43 235
32 44 19
32 45 168
32 46 63
32 47 252
32 48 203
32 49 166
32 50 268
32 51 58
32 52 235
32 53 34
32 54 161
32 55 49
32 56 246
32 57 103
32 58 217
32 59 226
32 60 112
32 61 229
32 62 78
32 63 40
32 64 228
32 65 50
32 66 229
32 67 138
32 68 69
32 69 29
32 70 152
32 71 26
32 72 94
32 73 43
32 74 100
32 75 203
32 76 32
32 77 243
32 78 101
32 79 85
32 80 33
32 81 213
32 82 22
32 83 147
32 84 184
32 85 142
32 86 129
32 87 140
32 88 238
32 89 259
32 90 230
33 34 203
33 35 5
33 36 160
33 37 168
33 38 8
33 39 205
33 40 81
33 41 55
33 42 61
33 43 195
33 44 87
33 45 227
33 46 23
33 47 44
33 48 90
33 49 80
33 50 202
33 51 184
33 52 192
33 53 200
33 54 148
33 55 49
33 56 61
33 57 100
33 58 226
33 59 255
33 60 184
33 61 180
33 62 94
33 63 145
33 64 89
33 65 32
33 66 74
33 67 138
33 68 163
33 69 155
33 70 152
33 71 228
33 72 260
33 73 8
33 74 179
33 75 1
33 76 254
33 77 62
33 78 252
33 79 8
33 80 233
33 81 44
33 82 74
33 83 122
33 84 181
33 85 101
33 86 243
33 87 218
33 88 249
33 89 159
33 90 150
34 35 166
34 36 239
34 37 76
34 38 38
34 39 30
34 40 166
34 41 0
34 42 64
34 43 71
34 44 56
34 45 94
34 46 257
34 47 220
34 48 73
34 49 67
34 50 185
34 51 253
34 52 88
34 53 240
34 54 100
34 55 39
34 56 2
34 57 165
34 58 43
34 59 121
34 60 255
34 61 24
34 62 153
34 63 64
34 64 213
34 65 9
34 66 230
34 67 242
34 68 260
34 69 181
34 70 55
34 71 48
34 72 215
34 73 48
34 74 233
34 75 75
34 76 215
34 77 221
34 78 65
34 79 123
34 80 235
34 81 194
34 82 18
34 83 57
34 84 163
34 85 257
34 86 29
34 87 86
34 88 124
34 89 217
34 90 207
35 36 120
35 37 83
35 38 168
35 39 237
35 40 134
35 41 120
35 42 144
35 43 119
35 44 204
35 45 173
35 46 44
35 47 146
35 48 241
35 49 232
35 50 225
35 51 230
35 52 26
35 53 187
35 54 36
35 55 55
35 56 199
35 57 246
35 58 245
35 59 180
35 60 129
35 61 16
35 62 67
35 63 252
35 64 254
35 65 98
35 66 22
35 67 82
35 68 2
35 69 32
35 70 85
35 71 14
35 72 156
35 73 20
35 74 191
35 75 96
35 76 65
35 77 50
35 78 215
35 79 260
35 80 180
35 81 46
35 82 238
35 83 8
35 84 138
35 85 159
35 86 65
35 87 170
35 88 98
35 89 79
35 90 90
36 37 74
36 38 233
36 39 266
36 40 139
36 41 15
36 42 151
36 43 162
36 44 159
36 45 2
36 46 265
36 47 265
36 48 0
36 49 45
36 50 230
36 51 137
36 52 221
36 53 16
36 54 230
36 55 108
36 56 102
36 57 266
36 58 191
36 59 26
36 60 137
36 61 163
36 62 166
36 63 33
36 64 93
36 65 230
36 66 21
36 67 134
36 68 22
36 69 67
36 70 123
36 71 10
36 72 183
36 73 110
36 74 59
36 75 64
36 76 118
36 77 262
36 78 246
36 79 97
36 80 255
36 81 43
36 82 251
36 83 14
36 84 116
36 85 68
36 86 156
36 87 217
36 88 263
36 89 42
36 90 32
37 38 18
37 39 44
37 40 142
37 41 225
37 42 267
37 43 155
37 44 237
37 45 126
37 46 253
37 47 179
37 48 120
37 49 143
37 50 231
37 51 120
37 52 4
37 53 7
37 54 251
37 55 93
37 56 11
37 57 183
37 58 191
37 59 58
37 60 113
37 61 201
37 62 39
37 63 14
37 64 13
37 65 71
37 66 43
37 67 186
37 68 63
37 69 96
37 70 112
37 71 176
37 72 25
37 73 139
37 74 194
37 75 25
37 76 149
37 77 227
37 78 7
37 79 42
37 80 95
37 81 162
37 82 211
37 83 242
37 84 68
37 85 157
37 86 181
37 87 81
37 88 110
37 89 168
37 90 93
38 39 25
38 40 39
38 41 235
38 42 114
38 43 229
38 44 229
38 45 250
38 46 237
38 47 79
38 48 188
38 49 110
38 50 47
38 51 81
38 52 125
38 53 215
38 54 254
38 55 75
38 56 13
38 57 148
38 58 190
38 59 263
38 60 93
38 61 25
38 62 40
38 63 232
38 64 122
38 65 242
38 66 186
38 67 61
38 68 260
38 69 108
38 70 154
38 71 185
38 72 210
38 73 254
38 74 38
38 75 46
38 76 44
38 77 22
38 78 123
38 79 97
38 80 99
38 81 168
38 82 98
38 83 151
38 84 144
38 85 262
38 86 162
38 87 64
38 88 217
38 89 148
38 90 168
39 40 259
39 41 72
39 42 249
39 43 56
39 44 7
39 45 143
39 46 264
39 47 220
39 48 243
39 49 121
39 50 123
39 51 208
39 52 71
39 53 54
39 54 269
39 55 80
39 56 195
39 57 229
39 58 205
39 59 100
39 60 251
39 61 86
39 62 19
39 63 29
39 64 184
39 65 15
39 66 8
39 67 165
39 68 53
39 69 193
39 70 162
39 71 60
39 72 46
39 73 226
39 74 35
39 75 130
39 76 109
39 77 59
39 78 246
39 79 265
39 80 143
39 81 198
39 82 18
39 83 144
39 84 181
39 85 204
39 86 228
39 87 7
39 88 81
39 89 170
39 90 34
40 41 1
40 42 35
40 43 6
40 44 129
40 45 58
40 46 11
40 47 113
40 48 235
40 49 97
40 50 249
40 51 182
40 52 119
40 53 43
40 54 30
40 55 187
40 56 61
40 57 130
40 58 252
40 59 196
40 60 158
40 61 117
40 62 135
40 63 152
40 64 32
40 65 251
40 66 204
40 67 230
40 68 25
40 69 100
40 70 254
40 71 50
40 72 120
40 73 61
40 74 175
40 75 31
40 76 55
40 77 69
40 78 109
40 79 101
40 80 83
40 81 81
40 82 19
40 83 20
40 84 109
40 85 244
40 86 112
40 87 234
40 88 210
40 89 152
40 90 252
41 42 262
41 43 66
41 44 244
41 45 201
41 46 116
41 47 14
41 48 152
41 49 194
41 50 157
41 51 150
41 52 30
41 53 134
41 54 229
41 55 123
41 56 235
41 57 176
41 58 96
41 59 239
41 60 30
41 61 184
41 62 132
41 63 92
41 64 167
41 65 238
41 66 23
41 67 78
41 68 11
41 69 51
41 70 103
41 71 1
41 72 87
41 73 190
41 74 80
41 75 196
41 76 15
41 77 92
41 78 68
41 79 1
41 80 163
41 81 181
41 82 100
41 83 164
41 84 267
41 85 224
41 86 66
41 87 89
41 88 40
41 89 60
41 90 185
42 43 223
42 44 148
42 45 252
42 46 218
42 47 131
42 48 8
42 49 55
42 50 46
42 51 203
42 52 69
42 53 214
42 54 239
42 55 100
42 56 96
42 57 169
42 58 191
42 59 163
42 60 234
42 61 55
42 62 27
42 63 267
42 64 1
42 65 59
42 66 194
42 67 76
42 68 35
42 69 241
42 70 156
42 71 68
42 72 100
42 73 100
42 74 25
42 75 18
42 76 215
42 77 17
42 78 157
42 79 223
42 80 257
42 81 203
42 82 182
42 83 38
42 84 35
42 85 97
42 86 213
42 87 2
42 88 151
42 89 195
42 90 24
43 44 164
43 45 89
43 46 178
43 47 138
43 48 211
43 49 123
43 50 37
43 51 257
43 52 145
43 53 198
43 54 177
43 55 259
43 56 126
43 57 11
43 58 261
43 59 125
43 60 79
43 61 182
43 62 134
43 63 50
43 64 232
43 65 129
43 66 65
43 67 144
43 68 195
43 69 62
43 70 184
43 71 12
43 72 30
43 73 171
43 74 140
43 75 61
43 76 197
43 77 11
43 78 179
43 79 109
43 80 229
43 81 257
43 82 172
43 83 204
43 84 51
43 85 206
43 86 4
43 87 232
43 88 123
43 89 171
43 90 153
44 45 169
44 46 264
44 47 229
44 48 225
44 49 225
44 50 132
44 51 97
44 52 44
44 53 167
44 54 224
44 55 35
44 56 209
44 57 69
44 58 70
44 59 158
44 60 248
44 61 269
44 62 119
44 63 194
44 64 98
44 65 200
44 66 63
44 67 50
44 68 92
44 69 199
44 70 101
44 71 37
44 72 53
44 73 51
44 74 79
44 75 0
44 76 103
44 77 4
44 78 262
44 79 124
44 80 119
44 81 213
44 82 147
44 83 12
44 84 109
44 85 82
44 86 94
44 87 26
44 88 39
44 89 131
44 90 73
45 46 32
45 47 140
45 48 171
45 49 189
45 50 24
45 51 93
45 52 217
45 53 46
45 54 230
45 55 134
45 56 50
45 57 56
45 58 4
45 59 126
45 60 225
45 61 18
45 62 76
45 63 144
45 64 13
45 65 244
45 66 205
45 67 267
45 68 91
45 69 112
45 70 85
45 71 90
45 72 148
45 73 215
45 74 162
45 75 264
45 76 105
45 77 34
45 78 226
45 79 7
45 80 114
45 81 56
45 82 54
45 83 85
45 84 19
45 85 119
45 86 124
45 87 250
45 88 181
45 89 129
45 90 42
46 47 18
46 48 257
46 49 238
46 50 52
46 51 185
46 52 55
46 53 3
46 54 239
46 55 97
46 56 118
46 57 17
46 58 74
46 59 162
46 60 151
46 61 264
46 62 11
46 63 207
46 64 24
46 65 100
46 66 198
46 67 83
46 68 74
46 69 236
46 70 4
46 71 211
46 72 33
46 73 59
46 74 30
46 75 6
46 76 42
46 77 138
46 78 54
46 79 215
46 80 262
46 81 245
46 82 66
46 83 222
46 84 249
46 85 104
46 86 147
46 87 240
46 88 80
46 89 217
46 90 18
47 48 225
47 49 79
47 50 245
47 51 231
47 52 86
47 53 131
47 54 127
47 55 98
47 56 2
47 57 235
47 58 46
47 59 10
47 60 27
47 61 103
47 62 215
47 63 10
47 64 16
47 65 38
47 66 97
47 67 102
47 68 87
47 69 258
47 70 165
47 71 15
47 72 187
47 73 1
47 74 53
47 75 180
47 76 175
47 77 30
47 78 176
47 79 38
47 80 152
47 81 61
47 82 23
47 83 140
47 84 51
47 85 127
47 86 26
47 87 35
47 88 194
47 89 122
47 90 103
48 49 96
48 50 249
48 51 223
48 52 141
48 53 162
48 54 225
48 55 63
48 56 90
48 57 179
48 58 209
48 59 267
48 60 106
48 61 132
48 62 73
48 63 198
48 64 128
48 65 239
48 66 167
48 67 239
48 68 187
48 69 49
48 70 191
48 71 24
48 72 84
48 73 85
48 74 202
48 75 92
48 76 96
48 77 100
48 78 243
48 79 232
48 80 78
48 81 30
48 82 69
48 83 249
48 84 114
48 85 7
48 86 103
48 87 75
48 88 223
48 89 131
48 90 147
49 50 21
49 51 120
49 52 189
49 53 269
49 54 38
49 55 251
49 56 150
49 57 43
49 58 97
49 59 168
49 60 137
49 61 21
49 62 189
49 63 35
49 64 34
49 65 109
49 66 61
49 67 100
49 68 162
49 69 122
49 70 31
49 71 163
49 72 13
49 73 111
49 74 53
49 75 24
49 76 256
49 77 189
49 78 186
49 79 213
49 80 148
49 81 51
49 82 185
49 83 183
49 84 72
49 85 164
49 86 177
49 87 91
49 88 120
49 89 50
49 90 217
50 51 182
50 52 97
50 53 78
50 54 101
50 55 64
50 56 7
50 57 73
50 58 200
50 59 233
50 60 113
50 61 27
50 62 151
50 63 135
50 64 236
50 65 243
50 66 241
50 67 93
50 68 216
50 69 237
50 70 198
50 71 10
50 72 240
50 73 73
50 74 45
50 75 210
50 76 229
50 77 20
50 78 202
50 79 170
50 80 17
50 81 224
50 82 72
50 83 89
50 84 36
50 85 126
50 86 250
50 87 185
50 88 127
50 89 269
50 90 149
51 52 137
51 53 218
51 54 24
51 55 64
51 56 5
51 57 103
51 58 223
51 59 37
51 60 39
51 61 257
51 62 39
51 63 21
51 64 118
51 65 259
51 66 229
51 67 90
51 68 140
51 69 218
51 70 60
51 71 56
51 72 198
51 73 78
51 74 232
51 75 40
51 76 151
51 77 16
51 78 51
51 79 36
51 80 203
51 81 33
51 82 199
51 83 202
51 84 77
51 85 16
51 86 245
51 87 91
51 88 75
51 89 61
51 90 140
52 53 223
52 54 26
52 55 190
52 56 42
52 57 186
52 58 50
52 59 102
52 60 81
52 61 154
52 62 24
52 63 102
52 64 7
52 65 5
52 66 7
52 67 103
52 68 69
52 69 0
52 70 44
52 71 230
52 72 78
52 73 81
52 74 262
52 75 150
52 76 255
52 77 40
52 78 98
52 79 142
52 80 229
52 81 161
52 82 150
52 83 204
52 84 208
52 85 44
52 86 38
52 87 34
52 88 95
52 89 153
52 90 144
53 54 235
53 55 221
53 56 240
53 57 161
53 58 206
53 59 248
53 60 4
53 61 216
53 62 94
53 63 106
53 64 66
53 65 137
53 66 122
53 67 14
53 68 188
53 69 31
53 70 76
53 71 1
53 72 191
53 73 205
53 74 83
53 75 70
53 76 167
53 77 25
53 78 43
53 79 50
53 80 92
53 81 125
53 82 159
53 83 254
53 84 68
53 85 132
53 86 121
53 87 123
53 88 16
53 89 142
53 90 31
54 55 70
54 56 178
54 57 78
54 58 52
54 59 48
54 60 11
54 61 183
54 62 53
54 63 197
54 64 150
54 65 245
54 66 34
54 67 94
54 68 141
54 69 250
54 70 18
54 71 179
54 72 10
54 73 178
54 74 8
54 75 157
54 76 180
54 77 111
54 78 33
54 79 57
54 80 24
54 81 167
54 82 184
54 83 254
54 84 67
54 85 154
54 86 27
54 87 21
54 88 114
54 89 36
54 90 224
55 56 128
55 57 132
55 58 187
55 59 225
55 60 90
55 61 135
55 62 90
55 63 2
55 64 123
55 65 226
55 66 163
55 67 267
55 68 196
55 69 245
55 70 39
55 71 179
55 72 87
55 73 59
55 74 123
55 75 59
55 76 251
55 77 171
55 78 263
55 79 42
55 80 218
55 81 182
55 82 203
55 83 242
55 84 26
55 85 263
55 86 259
55 87 137
55 88 107
55 89 175
55 90 0
56 57 18
56 58 180
56 59 92
56 60 244
56 61 147
56 62 223
56 63 184
56 64 137
56 65 120
56 66 186
56 67 267
56 68 88
56 69 186
56 70 93
56 71 62
56 72 214
56 73 2
56 74 69
56 75 157
56 76 137
56 77 188
56 78 265
56 79 96
56 80 146
56 81 174
56 82 84
56 83 27
56 84 253
56 85 56
56 86 235
56 87 237
56 88 122
56 89 266
56 90 122
57 58 62
57 59 4
57 60 165
57 61 206
57 62 174
57 63 127
57 64 75
57 65 76
57 66 120
57 67 121
57 68 25
57 69 203
57 70 151
57 71 222
57 72 164
57 73 68
57 74 2
57 75 75
57 76 53
57 77 170
57 78 100
57 79 98
57 80 196
57 81 103
57 82 34
57 83 14
57 84 254
57 85 254
57 86 268
57 87 149
57 88 56
57 89 155
57 90 130
58 59 82
58 60 166
58 61 81
58 62 227
58 63 165
58 64 141
58 65 215
58 66 139
58 67 11
58 68 244
58 69 224
58 70 241
58 71 4
58 72 87
58 73 194
58 74 62
58 75 131
58 76 84
58 77 9
58 78 114
58 79 208
58 80 144
58 81 77
58 82 94
58 83 42
58 84 246
58 85 150
58 86 6
58 87 234
58 88 106
58 89 27
58 90 94
59 60 158
59 61 64
59 62 25
59 63 94
59 64 212
59 65 92
59 66 129
59 67 48
59 68 183
59 69 174
59 70 253
59 71 184
59 72 190
59 73 12
59 74 82
59 75 93
59 76 1
59 77 121
59 78 258
59 79 194
59 80 269
59 81 37
59 82 247
59 83 106
59 84 139
59 85 17
59 86 99
59 87 189
59 88 22
59 89 159
59 90 38
60 61 142
60 62 238
60 63 261
60 64 113
60 65 234
60 66 247
60 67 131
60 68 91
60 69 221
60 70 15
60 71 234
60 72 269
60 73 68
60 74 205
60 75 117
60 76 52
60 77 261
60 78 97
60 79 255
60 80 219
60 81 123
60 82 89
60 83 84
60 84 23
60 85 111
60 86 212
60 87 140
60 88 152
60 89 207
60 90 231
61 62 25
61 63 200
61 64 235
61 65 184
61 66 10
61 67 0
61 68 66
61 69 83
61 70 245
61 71 73
61 72 98
61 73 125
61 74 23
61 75 133
61 76 102
61 77 127
61 78 246
61 79 0
61 80 218
61 81 184
61 82 227
61 83 160
61 84 31
61 85 219
61 86 43
61 87 157
61 88 61
61 89 53
61 90 83
62 63 24
62 64 95
62 65 81
62 66 200
62 67 157
62 68 74
62 69 255
62 70 244
62 71 102
62 72 59
62 73 135
62 74 125
62 75 84
62 76 76
62 77 28
62 78 118
62 79 126
62 80 92
62 81 0
62 82 204
62 83 25
62 84 96
62 85 116
62 86 52
62 87 21
62 88 93
62 89 182
62 90 73
63 64 155
63 65 83
63 66 67
63 67 45
63 68 152
63 69 206
63 70 105
63 71 22
63 72 1
63 73 50
63 74 39
63 75 251
63 76 65
63 77 115
63 78 75
63 79 83
63 80 18
63 81 96
63 82 268
63 83 82
63 84 95
63 85 117
63 86 191
63 87 212
63 88 88
63 89 200
63 90 42
64 65 152
64 66 126
64 67 187
64 68 131
64 69 180
64 70 182
64 71 77
64 72 111
64 73 210
64 74 94
64 75 253
64 76 15
64 77 244
64 78 176
64 79 62
64 80 220
64 81 176
64 82 157
64 83 22
64 84 195
64 85 103
64 86 26
64 87 98
64 88 111
64 89 235
64 90 139
65 66 46
65 67 99
65 68 90
65 69 216
65 70 42
65 71 94
65 72 204
65 73 81
65 74 77
65 75 63
65 76 31
65 77 198
65 78 239
65 79 243
65 80 256
65 81 248
65 82 43
65 83 208
65 84 14
65 85 215
65 86 19
65 87 123
65 88 59
65 89 20
65 90 224
66 67 22
66 68 205
66 69 203
66 70 49
66 71 168
66 72 220
66 73 239
66 74 156
66 75 48
66 76 66
66 77 260
66 78 230
66 79 249
66 80 56
66 81 233
66 82 49
66 83 269
66 84 223
66 85 47
66 86 61
66 87 252
66 88 130
66 89 107
66 90 73
67 68 218
67 69 199
67 70 258
67 71 117
67 72 227
67 73 182
67 74 120
67 75 205
67 76 8
67 77 195
67 78 19
67 79 65
67 80 55
67 81 103
67 82 35
67 83 222
67 84 178
67 85 266
67 86 222
67 87 88
67 88 25
67 89 133
67 90 243
68 69 249
68 70 210
68 71 139
68 72 172
68 73 89
68 74 165
68 75 44
68 76 40
68 77 136
68 78 66
68 79 155
68 80 102
68 81 202
68 82 103
68 83 249
68 84 6
68 85 236
68 86 185
68 87 252
68 88 141
68 89 219
68 90 67
69 70 105
69 71 92
69 72 236
69 73 200
69 74 163
69 75 43
69 76 164
69 77 89
69 78 63
69 79 262
69 80 31
69 81 57
69 82 45
69 83 248
69 84 210
69 85 243
69 86 28
69 87 41
69 88 221
69 89 192
69 90 223
70 71 234
70 72 49
70 73 179
70 74 256
70 75 84
70 76 257
70 77 31
70 78 72
70 79 139
70 80 75
70 81 103
70 82 209
70 83 164
70 84 224
70 85 18
70 86 30
70 87 94
70 88 85
70 89 1
70 90 11
71 72 98
71 73 51
71 74 5
71 75 125
71 76 126
71 77 228
71 78 183
71 79 126
71 80 163
71 81 220
71 82 94
71 83 219
71 84 18
71 85 56
71 86 82
71 87 123
71 88 53
71 89 155
71 90 151
72 73 34
72 74 84
72 75 73
72 76 183
72 77 84
72 78 39
72 79 171
72 80 169
72 81 246
72 82 21
72 83 232
72 84 121
72 85 124
72 86 27
72 87 77
72 88 61
72 89 66
72 90 119
73 74 30
73 75 201
73 76 218
73 77 224
73 78 47
73 79 152
73 80 73
73 81 50
73 82 108
73 83 60
73 84 79
73 85 112
73 86 241
73 87 146
73 88 208
73 89 176
73 90 31
74 75 183
74 76 225
74 77 215
74 78 262
74 79 181
74 80 40
74 81 164
74 82 157
74 83 140
74 84 261
74 85 207
74 86 147
74 87 78
74 88 9
74 89 148
74 90 52
75 76 79
75 77 4
75 78 116
75 79 87
75 80 122
75 81 86
75 82 186
75 83 169
75 84 230
75 85 206
75 86 141
75 87 143
75 88 63
75 89 139
75 90 202
76 77 131
76 78 150
76 79 188
76 80 166
76 81 36
76 82 94
76 83 269
76 84 152
76 85 233
76 86 218
76 87 262
76 88 179
76 89 32
76 90 204
77 78 223
77 79 259
77 80 202
77 81 266
77 82 164
77 83 240
77 84 118
77 85 37
77 86 70
77 87 179
77 88 44
77 89 125
77 90 181
78 79 42
78 80 127
78 81 30
78 82 58
78 83 164
78 84 45
78 85 257
78 86 220
78 87 132
78 88 199
78 89 16
78 90 28
79 80 150
79 81 254
79 82 30
79 83 245
79 84 227
79 85 210
79 86 62
79 87 179
79 88 56
79 89 88
79 90 119
80 81 209
80 82 65
80 83 258
80 84 59
80 85 138
80 86 172
80 87 201
80 88 247
80 89 143
80 90 182
81 82 190
81 83 185
81 84 206
81 85 248
81 86 116
81 87 24
81 88 225
81 89 173
81 90 136
82 83 113
82 84 36
82 85 242
82 86 57
82 87 167
82 88 251
82 89 197
82 90 196
83 84 103
83 85 63
83 86 121
83 87 130
83 88 223
83 89 57
83 90 137
84 85 196
84 86 132
84 87 1
84 88 230
84 89 186
84 90 32
85 86 181
85 87 260
85 88 194
85 89 172
85 90 192
86 87 263
86 88 125
86 89 235
86 90 118
87 88 205
87 89 149
87 90 63
88 89 8
88 90 120
89 90 129
